NAME : pr107.tour
COMMENT : Optimum tour for pr107.tsp (Length 44303)
TYPE : TOUR
DIMENSION : 107
TOUR_SECTION
40
37
34
31
33
36
35
32
29
26
30
27
28
25
22
19
21
24
23
20
17
14
18
15
16
13
12
11
8
10
9
7
5
6
3
4
1
2
63
64
66
67
65
68
69
72
71
70
73
62
74
61
76
77
75
78
80
83
82
79
81
60
84
59
86
87
85
88
90
93
92
89
91
58
94
57
96
97
95
98
100
103
102
99
101
56
104
105
107
106
55
50
53
54
51
52
49
46
45
43
48
47
44
41
38
42
39
-1
EOF
